50

96 2 288
93 4 296
86 33 263
86 41 297
85 0 266
83 24 253
80 18 274
80 31 286
80 3 272
79 15 271
77 7 232
68 11 221
67 16 286
64 32 275
64 5 207
63 25 228
60 10 269
57 29 226
55 2 274
54 5 254
54 17 193
54 11 250
54 10 239
52 12 281
52 16 294
52 20 227
51 17 236
44 20 227
43 2 200
41 18 294
41 18 278
39 6 260
39 3 243
39 2 299
38 2 145
36 9 291
36 14 116
35 4 152
34 4 285
34 4 188
31 10 120
31 1 297
29 6 169
29 2 289
28 0 263
24 2 128
23 7 201
22 7 109
22 4 166
20 3 260
